param captain_initial_location :=
1 1
2 1
3 1
4 1
5 2
6 2
7 2
8 2
9 4
10 4
11 4
12 5
13 5
14 3
15 3
16 3
;

param fo_initial_location :=
1 1
2 1
3 1
4 1
5 2
6 2
7 2
8 2
9 4
10 4
11 4
12 5
13 5
14 3
15 3
16 3
;
